(declare-fun bvlambda_7_ ()Bool         )
(declare-fun a73 () (Array (_ BitVec 1) (_ BitVec 3)))
(assert
(let (($e11 (_ bv0 2)))
(let (($e26 (_ bv6 3)))
(let (($e40 (_ bv6     14)))
(let (($e43 (_ bv0 10)))
(let (($e99 ((_ extract 12 0) $e40)))
(let (($e109 (concat        $e11 false              )))
(let (($e112 (store a73 true               $e26 )))
(let (($e113 (store $e112 bvlambda_7_ $e109)))
(let (($e114 (select $e113 true       )))
(let (($e115 (concat $e43 $e114)))
                  (bvult $e115 $e99)
                                                                                                                                                                                                                                                                                                                                                                                                                                                                                                                                                                                                                                                                                                                                                                                                                                                                                             ))))  )         )                                   )  )             )              )          )
